words_hard_train/543.qaiger
aag 96 16 0 1 80
2
4
10
14
18
22
26
30
38
40
44
48
52
56
60
66
193
6 2 5
8 7 5
12 8 11
16 12 15
20 16 19
24 20 23
28 24 27
32 29 31
34 28 30
36 33 35
42 38 40
46 43 45
50 46 49
54 50 53
58 54 57
62 58 61
64 62 40
68 64 67
70 36 69
72 37 68
74 71 73
76 63 40
78 77 66
80 76 67
82 79 81
84 25 26
86 85 29
88 82 87
90 83 86
92 89 91
94 59 40
96 95 61
98 94 60
100 97 99
102 21 22
104 103 25
106 101 104
108 100 105
110 107 109
112 92 111
114 74 112
116 55 40
118 117 56
120 116 57
122 119 121
124 17 18
126 125 21
128 123 126
130 122 127
132 129 131
134 51 40
136 135 52
138 134 53
140 137 139
142 13 14
144 143 17
146 141 145
148 140 144
150 147 149
152 47 40
154 153 48
156 152 49
158 155 157
160 9 10
162 161 13
164 159 163
166 158 162
168 165 167
170 42 44
172 171 47
174 3 4
176 175 7
178 173 176
180 172 177
182 179 181
184 182 38
186 169 184
188 151 186
190 132 188
192 114 190
i0 1 x1[0]
i1 1 x1[1]
i2 1 x1[2]
i3 1 x1[3]
i4 1 x1[4]
i5 1 x1[5]
i6 1 x1[6]
i7 1 x1[7]
i8 2 y2[0]
i9 2 y2[7]
i10 2 y2[1]
i11 2 y2[2]
i12 2 y2[3]
i13 2 y2[4]
i14 2 y2[5]
i15 2 y2[6]
o0 bool[0]
c
simplified
  !=
    abs
      2 y2
    or
      1
      subtract
        1 x1
        1
