words_hard_train/543.qaiger.qdimacs
p cnf 96 241
a 1 2 5 7 9 11 13 15 0
e 3 4 6 8 10 12 14 16 17 18 19 20 21 22 23 24 25 26 27 28 29 30 31 32 33 34 35 36 37 38 39 40 41 42 43 44 45 46 47 48 49 50 51 52 53 54 55 56 57 58 59 60 61 62 63 64 65 66 67 68 69 70 71 72 73 74 75 76 77 78 79 80 81 82 83 84 85 86 87 88 89 90 91 92 93 94 95 96 0
-1 2 3 0
1 -3 0
-2 -3 0
3 2 4 0
-3 -4 0
-2 -4 0
-4 5 6 0
4 -6 0
-5 -6 0
-6 7 8 0
6 -8 0
-7 -8 0
-8 9 10 0
8 -10 0
-9 -10 0
-10 11 12 0
10 -12 0
-11 -12 0
-12 13 14 0
12 -14 0
-13 -14 0
14 15 16 0
-14 -16 0
-15 -16 0
-14 -15 17 0
14 -17 0
15 -17 0
16 17 18 0
-16 -18 0
-17 -18 0
-19 -20 21 0
19 -21 0
20 -21 0
21 22 23 0
-21 -23 0
-22 -23 0
-23 24 25 0
23 -25 0
-24 -25 0
-25 26 27 0
25 -27 0
-26 -27 0
-27 28 29 0
27 -29 0
-28 -29 0
-29 30 31 0
29 -31 0
-30 -31 0
-31 -20 32 0
31 -32 0
20 -32 0
-32 33 34 0
32 -34 0
-33 -34 0
-18 34 35 0
18 -35 0
-34 -35 0
18 -34 36 0
-18 -36 0
34 -36 0
35 36 37 0
-35 -37 0
-36 -37 0
31 -20 38 0
-31 -38 0
20 -38 0
38 -33 39 0
-38 -39 0
33 -39 0
-38 33 40 0
38 -40 0
-33 -40 0
39 40 41 0
-39 -41 0
-40 -41 0
12 -13 42 0
-12 -42 0
13 -42 0
42 14 43 0
-42 -43 0
-14 -43 0
-41 43 44 0
41 -44 0
-43 -44 0
41 -43 45 0
-41 -45 0
43 -45 0
44 45 46 0
-44 -46 0
-45 -46 0
29 -20 47 0
-29 -47 0
20 -47 0
47 30 48 0
-47 -48 0
-30 -48 0
-47 -30 49 0
47 -49 0
30 -49 0
48 49 50 0
-48 -50 0
-49 -50 0
10 -11 51 0
-10 -51 0
11 -51 0
51 12 52 0
-51 -52 0
-12 -52 0
50 -52 53 0
-50 -53 0
52 -53 0
-50 52 54 0
50 -54 0
-52 -54 0
53 54 55 0
-53 -55 0
-54 -55 0
-46 55 56 0
46 -56 0
-55 -56 0
-37 -56 57 0
37 -57 0
56 -57 0
27 -20 58 0
-27 -58 0
20 -58 0
58 -28 59 0
-58 -59 0
28 -59 0
-58 28 60 0
58 -60 0
-28 -60 0
59 60 61 0
-59 -61 0
-60 -61 0
8 -9 62 0
-8 -62 0
9 -62 0
62 10 63 0
-62 -63 0
-10 -63 0
61 -63 64 0
-61 -64 0
63 -64 0
-61 63 65 0
61 -65 0
-63 -65 0
64 65 66 0
-64 -66 0
-65 -66 0
25 -20 67 0
-25 -67 0
20 -67 0
67 -26 68 0
-67 -68 0
26 -68 0
-67 26 69 0
67 -69 0
-26 -69 0
68 69 70 0
-68 -70 0
-69 -70 0
6 -7 71 0
-6 -71 0
7 -71 0
71 8 72 0
-71 -72 0
-8 -72 0
70 72 73 0
-70 -73 0
-72 -73 0
-70 -72 74 0
70 -74 0
72 -74 0
73 74 75 0
-73 -75 0
-74 -75 0
23 -20 76 0
-23 -76 0
20 -76 0
76 -24 77 0
-76 -77 0
24 -77 0
-76 24 78 0
76 -78 0
-24 -78 0
77 78 79 0
-77 -79 0
-78 -79 0
4 -5 80 0
-4 -80 0
5 -80 0
80 6 81 0
-80 -81 0
-6 -81 0
79 81 82 0
-79 -82 0
-81 -82 0
-79 -81 83 0
79 -83 0
81 -83 0
82 83 84 0
-82 -84 0
-83 -84 0
-21 -22 85 0
21 -85 0
22 -85 0
85 23 86 0
-85 -86 0
-23 -86 0
1 -2 87 0
-1 -87 0
2 -87 0
87 3 88 0
-87 -88 0
-3 -88 0
86 -88 89 0
-86 -89 0
88 -89 0
-86 88 90 0
86 -90 0
-88 -90 0
89 90 91 0
-89 -91 0
-90 -91 0
-91 -19 92 0
91 -92 0
19 -92 0
84 -92 93 0
-84 -93 0
92 -93 0
75 -93 94 0
-75 -94 0
93 -94 0
-66 -94 95 0
66 -95 0
94 -95 0
-57 -95 96 0
57 -96 0
95 -96 0
-96 0
